Maximize
 0
Subject To
 epc_0!1: -32.01473597280247 y_1!1_2!1 +13.90228537085234 y_1!2_2!1 +22.682630879794786 y_1!3_2!1 -77.15025443441732 y_1!1_2!2 -6.158978058369755 y_1!2_2!2 +10.47078284934399 y_1!3_2!2 -60.117145528825944 y_1!1_2!3 +6.271797006585487 y_1!2_2!3 -40.72143935366921 y_1!3_2!3 + lambda_0!1 - mu_0 = 0
 epc_0!2: -27.571522432530358 y_1!1_2!1 +68.10027501216149 y_1!2_2!1 +3.7739997934897787 y_1!3_2!1 +28.58242184391483 y_1!1_2!2 -59.40969467624902 y_1!2_2!2 -73.20012086791625 y_1!3_2!2 +5.2448292788243975 y_1!1_2!3 +78.43961165884389 y_1!2_2!3 -62.2219966605557 y_1!3_2!3 + lambda_0!2 - mu_0 = 0
 epc_0!3: +61.822213599927295 y_1!1_2!1 -2.3444346257709157 y_1!2_2!1 -28.978607768454452 y_1!3_2!1 +41.72490551148158 y_1!1_2!2 +88.82793636350928 y_1!2_2!2 +54.52665539439616 y_1!3_2!2 +8.091482799799138 y_1!1_2!3 +28.017961397227396 y_1!2_2!3 -72.24406607957836 y_1!3_2!3 + lambda_0!3 - mu_0 = 0
 dc_0: x_0!1 + x_0!2 + x_0!3 = 1
 bc_0!1: lambda_0!1 +288.30776267567313 x_0!1 <= 288.30776267567313
 bc_0!2: lambda_0!2 +288.30776267567313 x_0!2 <= 288.30776267567313
 bc_0!3: lambda_0!3 +288.30776267567313 x_0!3 <= 288.30776267567313
 sum_0!1: y_1!1_2!1 - x_1!1 - x_2!1 >= -1
 idk_0!1!1: y_1!1_2!1 - x_1!1 <= 0
 idk_0!1!2: y_1!1_2!1 - x_2!1 <= 0
 sum_0!2: y_1!2_2!1 - x_1!2 - x_2!1 >= -1
 idk_0!2!1: y_1!2_2!1 - x_1!2 <= 0
 idk_0!2!2: y_1!2_2!1 - x_2!1 <= 0
 sum_0!3: y_1!3_2!1 - x_1!3 - x_2!1 >= -1
 idk_0!3!1: y_1!3_2!1 - x_1!3 <= 0
 idk_0!3!2: y_1!3_2!1 - x_2!1 <= 0
 sum_0!4: y_1!1_2!2 - x_1!1 - x_2!2 >= -1
 idk_0!4!1: y_1!1_2!2 - x_1!1 <= 0
 idk_0!4!2: y_1!1_2!2 - x_2!2 <= 0
 sum_0!5: y_1!2_2!2 - x_1!2 - x_2!2 >= -1
 idk_0!5!1: y_1!2_2!2 - x_1!2 <= 0
 idk_0!5!2: y_1!2_2!2 - x_2!2 <= 0
 sum_0!6: y_1!3_2!2 - x_1!3 - x_2!2 >= -1
 idk_0!6!1: y_1!3_2!2 - x_1!3 <= 0
 idk_0!6!2: y_1!3_2!2 - x_2!2 <= 0
 sum_0!7: y_1!1_2!3 - x_1!1 - x_2!3 >= -1
 idk_0!7!1: y_1!1_2!3 - x_1!1 <= 0
 idk_0!7!2: y_1!1_2!3 - x_2!3 <= 0
 sum_0!8: y_1!2_2!3 - x_1!2 - x_2!3 >= -1
 idk_0!8!1: y_1!2_2!3 - x_1!2 <= 0
 idk_0!8!2: y_1!2_2!3 - x_2!3 <= 0
 sum_0!9: y_1!3_2!3 - x_1!3 - x_2!3 >= -1
 idk_0!9!1: y_1!3_2!3 - x_1!3 <= 0
 idk_0!9!2: y_1!3_2!3 - x_2!3 <= 0
 epc_1!1: +48.407584660144636 y_0!1_2!1 -77.06705302685285 y_0!2_2!1 -43.401133101987725 y_0!3_2!1 +12.486843426844189 y_0!1_2!2 -47.46224845674505 y_0!2_2!2 -62.527478334746945 y_0!3_2!2 +2.758147888888132 y_0!1_2!3 -76.20987607496457 y_0!2_2!3 -61.05426454622047 y_0!3_2!3 + lambda_1!1 - mu_1 = 0
 epc_1!2: +36.710969885055704 y_0!1_2!1 +3.997140781777375 y_0!2_2!1 -83.01202832595283 y_0!3_2!1 +35.48269543447955 y_0!1_2!2 -35.55693958629537 y_0!2_2!2 +20.829415953816664 y_0!3_2!2 +61.32274304568858 y_0!1_2!3 +83.14407061117032 y_0!2_2!3 -22.970241109771834 y_0!3_2!3 + lambda_1!2 - mu_1 = 0
 epc_1!3: -99.56917118937425 y_0!1_2!1 -46.060799271754014 y_0!2_2!1 -79.00881862425288 y_0!3_2!1 -95.67434047822938 y_0!1_2!2 +7.794198973076718 y_0!2_2!2 +41.8606031768843 y_0!3_2!2 -82.12209477830095 y_0!1_2!3 +80.68612224475817 y_0!2_2!3 -16.47122982990672 y_0!3_2!3 + lambda_1!3 - mu_1 = 0
 dc_1: x_1!1 + x_1!2 + x_1!3 = 1
 bc_1!1: lambda_1!1 +288.30776267567313 x_1!1 <= 288.30776267567313
 bc_1!2: lambda_1!2 +288.30776267567313 x_1!2 <= 288.30776267567313
 bc_1!3: lambda_1!3 +288.30776267567313 x_1!3 <= 288.30776267567313
 sum_1!1: y_0!1_2!1 - x_0!1 - x_2!1 >= -1
 idk_1!1!0: y_0!1_2!1 - x_0!1 <= 0
 idk_1!1!2: y_0!1_2!1 - x_2!1 <= 0
 sum_1!2: y_0!2_2!1 - x_0!2 - x_2!1 >= -1
 idk_1!2!0: y_0!2_2!1 - x_0!2 <= 0
 idk_1!2!2: y_0!2_2!1 - x_2!1 <= 0
 sum_1!3: y_0!3_2!1 - x_0!3 - x_2!1 >= -1
 idk_1!3!0: y_0!3_2!1 - x_0!3 <= 0
 idk_1!3!2: y_0!3_2!1 - x_2!1 <= 0
 sum_1!4: y_0!1_2!2 - x_0!1 - x_2!2 >= -1
 idk_1!4!0: y_0!1_2!2 - x_0!1 <= 0
 idk_1!4!2: y_0!1_2!2 - x_2!2 <= 0
 sum_1!5: y_0!2_2!2 - x_0!2 - x_2!2 >= -1
 idk_1!5!0: y_0!2_2!2 - x_0!2 <= 0
 idk_1!5!2: y_0!2_2!2 - x_2!2 <= 0
 sum_1!6: y_0!3_2!2 - x_0!3 - x_2!2 >= -1
 idk_1!6!0: y_0!3_2!2 - x_0!3 <= 0
 idk_1!6!2: y_0!3_2!2 - x_2!2 <= 0
 sum_1!7: y_0!1_2!3 - x_0!1 - x_2!3 >= -1
 idk_1!7!0: y_0!1_2!3 - x_0!1 <= 0
 idk_1!7!2: y_0!1_2!3 - x_2!3 <= 0
 sum_1!8: y_0!2_2!3 - x_0!2 - x_2!3 >= -1
 idk_1!8!0: y_0!2_2!3 - x_0!2 <= 0
 idk_1!8!2: y_0!2_2!3 - x_2!3 <= 0
 sum_1!9: y_0!3_2!3 - x_0!3 - x_2!3 >= -1
 idk_1!9!0: y_0!3_2!3 - x_0!3 <= 0
 idk_1!9!2: y_0!3_2!3 - x_2!3 <= 0
 epc_2!1: -75.0904644569051 y_0!1_1!1 -88.0800262471441 y_0!2_1!1 +49.93471384628609 y_0!3_1!1 -64.56312626075567 y_0!1_1!2 +52.54289719147391 y_0!2_1!2 -57.34202070071461 y_0!3_1!2 -17.085624565979245 y_0!1_1!3 +76.75017007097296 y_0!2_1!3 +79.51162232296758 y_0!3_1!3 + lambda_2!1 - mu_2 = 0
 epc_2!2: +91.38283312266438 y_0!1_1!1 +23.803542931265383 y_0!2_1!1 +12.428763074121747 y_0!3_1!1 -43.31518146981328 y_0!1_1!2 -47.28283853185209 y_0!2_1!2 -8.396757254813053 y_0!3_1!2 -64.17645980274801 y_0!1_1!3 +24.981607403136024 y_0!2_1!3 -22.573325913607476 y_0!3_1!3 + lambda_2!2 - mu_2 = 0
 epc_2!3: -64.23389565144785 y_0!1_1!1 -39.39159115179021 y_0!2_1!1 -34.923622769140536 y_0!3_1!1 -50.96800582194299 y_0!1_1!2 -96.92492955300875 y_0!2_1!2 +5.498091843038338 y_0!3_1!2 +9.293630459179838 y_0!1_1!3 +41.108424715681934 y_0!2_1!3 -72.40264397831476 y_0!3_1!3 + lambda_2!3 - mu_2 = 0
 dc_2: x_2!1 + x_2!2 + x_2!3 = 1
 bc_2!1: lambda_2!1 +288.30776267567313 x_2!1 <= 288.30776267567313
 bc_2!2: lambda_2!2 +288.30776267567313 x_2!2 <= 288.30776267567313
 bc_2!3: lambda_2!3 +288.30776267567313 x_2!3 <= 288.30776267567313
 sum_2!1: y_0!1_1!1 - x_0!1 - x_1!1 >= -1
 idk_2!1!0: y_0!1_1!1 - x_0!1 <= 0
 idk_2!1!1: y_0!1_1!1 - x_1!1 <= 0
 sum_2!2: y_0!2_1!1 - x_0!2 - x_1!1 >= -1
 idk_2!2!0: y_0!2_1!1 - x_0!2 <= 0
 idk_2!2!1: y_0!2_1!1 - x_1!1 <= 0
 sum_2!3: y_0!3_1!1 - x_0!3 - x_1!1 >= -1
 idk_2!3!0: y_0!3_1!1 - x_0!3 <= 0
 idk_2!3!1: y_0!3_1!1 - x_1!1 <= 0
 sum_2!4: y_0!1_1!2 - x_0!1 - x_1!2 >= -1
 idk_2!4!0: y_0!1_1!2 - x_0!1 <= 0
 idk_2!4!1: y_0!1_1!2 - x_1!2 <= 0
 sum_2!5: y_0!2_1!2 - x_0!2 - x_1!2 >= -1
 idk_2!5!0: y_0!2_1!2 - x_0!2 <= 0
 idk_2!5!1: y_0!2_1!2 - x_1!2 <= 0
 sum_2!6: y_0!3_1!2 - x_0!3 - x_1!2 >= -1
 idk_2!6!0: y_0!3_1!2 - x_0!3 <= 0
 idk_2!6!1: y_0!3_1!2 - x_1!2 <= 0
 sum_2!7: y_0!1_1!3 - x_0!1 - x_1!3 >= -1
 idk_2!7!0: y_0!1_1!3 - x_0!1 <= 0
 idk_2!7!1: y_0!1_1!3 - x_1!3 <= 0
 sum_2!8: y_0!2_1!3 - x_0!2 - x_1!3 >= -1
 idk_2!8!0: y_0!2_1!3 - x_0!2 <= 0
 idk_2!8!1: y_0!2_1!3 - x_1!3 <= 0
 sum_2!9: y_0!3_1!3 - x_0!3 - x_1!3 >= -1
 idk_2!9!0: y_0!3_1!3 - x_0!3 <= 0
 idk_2!9!1: y_0!3_1!3 - x_1!3 <= 0
Bounds
 mu_0 free
 mu_1 free
 mu_2 free
Binary
 x_0!1 x_0!2 x_0!3 x_1!1 x_1!2 x_1!3 x_2!1 x_2!2 x_2!3
End
